jobs  (incl. supersource/sink ):	102
RESOURCES
- renewable                 : 2 R
- nonrenewable              : 2 N
- doubly constrained        : 0 D
************************************************************************
PRECEDENCE RELATIONS:
jobnr.    #modes  #successors   successors
1	1	27		2 3 4 5 6 7 8 9 10 11 12 13 14 16 17 19 20 21 24 26 27 28 30 31 32 36 45 
2	9	13		75 73 66 62 56 52 49 48 40 37 29 22 18 
3	9	13		71 64 56 55 52 51 44 41 38 37 33 25 18 
4	9	12		101 97 72 66 63 54 51 49 47 43 29 15 
5	9	16		96 95 92 75 74 66 64 57 48 47 43 42 41 40 37 23 
6	9	18		101 100 96 92 88 74 72 65 63 60 55 54 53 51 46 43 41 37 
7	9	18		98 97 92 72 71 65 64 63 61 60 53 52 49 47 46 43 42 40 
8	9	10		100 94 73 66 57 56 49 48 34 23 
9	9	13		99 98 96 94 93 92 61 58 51 48 47 42 29 
10	9	19		101 100 96 94 91 82 72 71 66 65 63 62 61 60 57 54 50 47 46 
11	9	19		99 98 97 96 94 92 91 87 73 71 70 68 64 63 61 58 57 47 42 
12	9	13		99 98 95 88 74 73 70 69 64 57 46 39 35 
13	9	12		100 99 97 95 93 87 81 69 62 56 38 37 
14	9	11		98 94 93 91 88 73 64 59 58 46 34 
15	9	13		100 94 90 85 74 70 69 62 61 59 57 50 39 
16	9	12		100 99 96 93 88 85 72 61 60 46 43 34 
17	9	9		100 73 72 70 64 63 62 60 33 
18	9	20		101 100 99 97 94 93 92 91 90 89 87 85 82 70 69 68 65 61 57 47 
19	9	12		97 93 92 85 82 69 63 62 60 48 47 46 
20	9	11		97 96 92 88 86 71 70 69 60 46 39 
21	9	14		101 97 95 94 90 88 87 82 71 63 61 57 49 47 
22	9	14		98 96 94 92 90 89 88 87 72 64 61 60 47 43 
23	9	13		101 93 91 84 82 78 76 71 65 63 62 60 46 
24	9	12		98 92 89 87 82 71 69 63 62 60 51 47 
25	9	10		99 98 96 93 89 87 69 62 48 47 
26	9	18		100 99 97 96 95 90 89 88 87 84 82 81 77 75 68 67 61 60 
27	9	14		93 92 89 88 87 86 82 81 71 69 68 64 60 53 
28	9	13		98 96 95 91 88 86 85 84 82 78 76 60 46 
29	9	8		95 86 82 71 69 60 57 46 
30	9	13		96 94 93 92 91 88 85 83 81 69 68 61 57 
31	9	13		93 91 88 87 86 84 81 79 77 76 73 71 60 
32	9	6		97 92 83 82 53 46 
33	9	8		97 94 92 91 85 82 67 46 
34	9	7		97 92 86 82 69 63 47 
35	9	11		97 93 86 84 82 79 78 77 71 67 60 
36	9	10		96 92 90 87 82 79 77 76 70 60 
37	9	9		98 94 91 83 82 77 70 68 61 
38	9	11		101 98 92 89 85 82 80 78 77 76 72 
39	9	9		93 91 89 87 82 81 78 68 67 
40	9	9		94 91 90 88 87 81 80 70 67 
41	9	8		94 87 83 82 78 70 69 68 
42	9	7		85 84 82 81 79 67 62 
43	9	6		82 81 80 78 69 67 
44	9	5		91 87 85 79 57 
45	9	7		97 96 92 88 85 81 80 
46	9	6		90 89 87 81 77 68 
47	9	6		84 83 81 80 78 67 
48	9	6		91 90 79 77 76 70 
49	9	6		96 93 86 83 80 76 
50	9	6		98 95 83 80 77 76 
51	9	5		95 85 78 77 67 
52	9	5		93 84 82 78 67 
53	9	3		79 67 57 
54	9	5		99 95 86 85 77 
55	9	4		89 86 77 68 
56	9	3		86 78 60 
57	9	3		78 77 76 
58	9	3		95 86 76 
59	9	3		95 84 76 
60	9	2		83 80 
61	9	2		78 76 
62	9	2		88 86 
63	9	2		80 79 
64	9	2		85 78 
65	9	2		81 80 
66	9	2		81 79 
67	9	1		76 
68	9	1		79 
69	9	1		77 
70	9	1		84 
71	9	1		85 
72	9	1		86 
73	9	1		82 
74	9	1		84 
75	9	1		78 
76	9	1		102 
77	9	1		102 
78	9	1		102 
79	9	1		102 
80	9	1		102 
81	9	1		102 
82	9	1		102 
83	9	1		102 
84	9	1		102 
85	9	1		102 
86	9	1		102 
87	9	1		102 
88	9	1		102 
89	9	1		102 
90	9	1		102 
91	9	1		102 
92	9	1		102 
93	9	1		102 
94	9	1		102 
95	9	1		102 
96	9	1		102 
97	9	1		102 
98	9	1		102 
99	9	1		102 
100	9	1		102 
101	9	1		102 
102	1	0		
************************************************************************
REQUESTS/DURATIONS
jobnr.	mode	dur	R1	R2	N1	N2	
------------------------------------------------------------------------
1	1	0	0	0	0	0	
2	1	6	4	5	26	14	
	2	7	4	4	25	13	
	3	9	4	4	21	13	
	4	12	4	4	18	12	
	5	13	4	3	16	11	
	6	14	3	3	11	11	
	7	20	3	3	11	10	
	8	25	3	2	8	10	
	9	26	3	2	3	10	
3	1	7	3	5	27	22	
	2	10	3	4	26	19	
	3	13	3	4	24	18	
	4	18	3	4	23	14	
	5	19	3	4	21	13	
	6	23	3	4	17	13	
	7	25	3	4	16	9	
	8	27	3	4	14	7	
	9	30	3	4	13	6	
4	1	2	4	4	19	28	
	2	3	4	3	19	26	
	3	6	4	3	18	25	
	4	12	4	3	16	25	
	5	15	4	2	16	23	
	6	20	4	2	13	23	
	7	22	4	1	12	22	
	8	26	4	1	11	20	
	9	30	4	1	10	20	
5	1	2	4	4	7	27	
	2	8	4	3	7	22	
	3	9	4	3	7	20	
	4	15	4	3	7	19	
	5	16	4	3	7	15	
	6	17	4	2	7	11	
	7	18	4	2	7	10	
	8	29	4	2	7	5	
	9	30	4	2	7	4	
6	1	2	1	4	14	14	
	2	9	1	4	13	12	
	3	12	1	4	13	10	
	4	13	1	4	13	8	
	5	14	1	3	12	7	
	6	17	1	3	11	5	
	7	18	1	3	11	4	
	8	25	1	2	10	3	
	9	29	1	2	10	1	
7	1	3	4	4	27	19	
	2	4	4	4	26	18	
	3	12	4	4	25	16	
	4	13	4	4	24	15	
	5	16	3	4	23	15	
	6	21	3	3	22	15	
	7	22	3	3	22	14	
	8	26	3	3	20	12	
	9	27	3	3	20	11	
8	1	7	2	4	29	14	
	2	10	2	4	27	14	
	3	20	2	4	27	13	
	4	21	2	4	26	13	
	5	25	1	4	25	13	
	6	26	1	4	25	12	
	7	27	1	4	24	11	
	8	28	1	4	24	10	
	9	30	1	4	23	11	
9	1	2	5	3	19	15	
	2	6	4	2	19	12	
	3	12	4	2	18	12	
	4	16	4	2	18	11	
	5	17	3	1	17	8	
	6	18	3	1	17	6	
	7	19	3	1	16	5	
	8	21	3	1	16	2	
	9	22	3	1	15	2	
10	1	3	3	4	27	24	
	2	4	2	4	23	23	
	3	9	2	4	19	23	
	4	16	2	4	19	22	
	5	17	2	3	14	23	
	6	18	2	3	12	23	
	7	25	2	3	8	23	
	8	27	2	2	6	23	
	9	30	2	2	5	23	
11	1	1	2	4	30	18	
	2	2	2	4	27	18	
	3	3	2	4	21	18	
	4	5	2	4	18	18	
	5	8	2	4	17	18	
	6	15	2	4	15	18	
	7	19	2	4	12	18	
	8	22	2	4	10	18	
	9	23	2	4	5	18	
12	1	1	4	4	7	29	
	2	5	4	4	6	27	
	3	15	3	4	6	23	
	4	17	3	4	5	22	
	5	25	3	4	5	20	
	6	26	2	4	5	19	
	7	27	1	4	5	16	
	8	28	1	4	4	15	
	9	29	1	4	4	13	
13	1	9	2	2	28	26	
	2	10	2	1	25	22	
	3	11	2	1	25	21	
	4	12	2	1	23	18	
	5	16	2	1	21	15	
	6	23	2	1	19	12	
	7	26	2	1	16	10	
	8	28	2	1	16	8	
	9	30	2	1	14	4	
14	1	4	3	2	13	26	
	2	10	2	2	12	26	
	3	12	2	2	11	26	
	4	16	2	2	8	26	
	5	20	2	2	7	26	
	6	23	2	1	7	26	
	7	27	2	1	4	26	
	8	28	2	1	3	26	
	9	29	2	1	2	26	
15	1	5	3	4	12	12	
	2	8	3	4	11	12	
	3	9	3	4	10	10	
	4	13	3	4	9	10	
	5	20	3	4	7	9	
	6	21	3	4	7	8	
	7	22	3	4	6	7	
	8	28	3	4	4	5	
	9	30	3	4	3	5	
16	1	2	4	3	26	28	
	2	4	4	2	24	27	
	3	6	4	2	21	26	
	4	15	4	2	20	26	
	5	23	4	2	19	25	
	6	25	3	2	16	25	
	7	28	3	2	15	24	
	8	29	3	2	13	23	
	9	30	3	2	10	23	
17	1	1	4	4	6	21	
	2	2	4	4	5	17	
	3	3	4	4	5	16	
	4	8	4	4	4	13	
	5	9	4	3	3	13	
	6	15	4	3	3	10	
	7	17	4	2	3	7	
	8	21	4	2	2	6	
	9	22	4	2	2	2	
18	1	2	3	1	29	25	
	2	8	2	1	26	21	
	3	9	2	1	23	21	
	4	18	2	1	22	18	
	5	19	2	1	18	18	
	6	22	1	1	18	15	
	7	23	1	1	15	14	
	8	28	1	1	13	12	
	9	29	1	1	11	10	
19	1	7	5	5	29	14	
	2	8	4	4	25	13	
	3	9	4	4	25	12	
	4	13	4	4	22	13	
	5	14	3	3	21	13	
	6	15	3	3	21	12	
	7	24	3	3	19	12	
	8	25	3	3	16	12	
	9	27	3	3	16	11	
20	1	4	4	4	26	18	
	2	7	3	4	22	17	
	3	9	3	4	20	14	
	4	10	3	4	18	11	
	5	11	2	4	17	10	
	6	12	2	4	16	8	
	7	14	2	4	12	6	
	8	16	1	4	11	6	
	9	26	1	4	9	4	
21	1	2	1	5	9	23	
	2	3	1	5	8	22	
	3	4	1	5	8	19	
	4	9	1	5	7	19	
	5	12	1	5	7	17	
	6	13	1	5	6	16	
	7	16	1	5	6	13	
	8	17	1	5	5	11	
	9	22	1	5	5	10	
22	1	2	4	3	2	21	
	2	4	4	2	2	19	
	3	5	4	2	2	17	
	4	8	4	2	2	16	
	5	9	4	2	2	15	
	6	10	3	2	1	14	
	7	18	3	2	1	13	
	8	21	3	2	1	12	
	9	27	3	2	1	11	
23	1	6	4	2	24	28	
	2	11	3	2	23	26	
	3	12	3	2	22	26	
	4	21	2	2	19	24	
	5	23	2	2	18	22	
	6	24	2	2	17	21	
	7	25	2	2	15	19	
	8	29	1	2	14	18	
	9	30	1	2	13	17	
24	1	1	3	4	16	22	
	2	6	3	4	13	22	
	3	12	3	4	13	21	
	4	13	3	4	10	22	
	5	24	2	4	10	21	
	6	25	2	3	9	21	
	7	25	2	3	6	22	
	8	26	2	3	6	21	
	9	27	2	3	4	21	
25	1	1	3	4	25	16	
	2	9	2	4	23	15	
	3	11	2	4	20	15	
	4	15	2	4	20	14	
	5	17	2	4	15	13	
	6	23	1	4	15	13	
	7	24	1	4	13	12	
	8	26	1	4	9	12	
	9	29	1	4	7	12	
26	1	7	5	3	14	25	
	2	10	4	3	12	24	
	3	11	3	3	12	21	
	4	13	3	3	11	18	
	5	16	3	3	11	17	
	6	21	2	2	11	15	
	7	22	2	2	10	14	
	8	24	1	2	10	10	
	9	27	1	2	9	9	
27	1	1	4	4	23	10	
	2	7	4	4	23	8	
	3	8	4	4	23	7	
	4	12	4	4	22	6	
	5	13	4	4	22	5	
	6	14	4	4	22	4	
	7	16	4	4	21	4	
	8	17	4	4	21	3	
	9	29	4	4	21	2	
28	1	4	5	4	13	9	
	2	5	4	4	13	8	
	3	9	4	4	12	8	
	4	10	4	4	9	8	
	5	11	3	4	9	6	
	6	19	3	3	8	6	
	7	20	3	3	5	5	
	8	21	3	3	5	4	
	9	23	3	3	3	4	
29	1	3	4	4	22	25	
	2	4	4	3	20	21	
	3	5	4	3	20	20	
	4	6	4	2	18	18	
	5	8	4	2	18	15	
	6	9	4	2	16	13	
	7	14	4	2	14	10	
	8	26	4	1	13	9	
	9	28	4	1	12	6	
30	1	3	2	3	28	11	
	2	7	1	2	24	11	
	3	8	1	2	20	9	
	4	10	1	2	18	8	
	5	11	1	1	15	7	
	6	20	1	1	11	6	
	7	26	1	1	9	5	
	8	28	1	1	7	3	
	9	29	1	1	5	2	
31	1	1	5	3	22	22	
	2	2	4	3	20	22	
	3	5	4	3	19	21	
	4	11	3	3	18	21	
	5	14	3	3	17	19	
	6	17	3	3	16	19	
	7	18	3	3	13	18	
	8	23	2	3	12	17	
	9	28	2	3	11	17	
32	1	4	4	2	22	20	
	2	8	4	2	21	18	
	3	18	4	2	21	15	
	4	20	4	2	20	15	
	5	21	3	1	20	13	
	6	22	3	1	19	9	
	7	23	2	1	19	9	
	8	28	2	1	19	6	
	9	30	2	1	18	3	
33	1	1	4	4	22	20	
	2	3	3	4	21	17	
	3	6	3	4	21	16	
	4	8	3	4	21	14	
	5	9	3	3	20	14	
	6	14	2	3	20	13	
	7	24	2	2	20	11	
	8	27	2	2	19	9	
	9	28	2	2	19	7	
34	1	9	4	5	26	21	
	2	16	4	4	23	20	
	3	17	4	4	21	19	
	4	18	4	4	21	18	
	5	19	4	4	18	16	
	6	20	4	4	16	14	
	7	23	4	4	16	13	
	8	24	4	4	12	12	
	9	30	4	4	12	11	
35	1	1	3	2	12	15	
	2	2	3	2	10	14	
	3	4	3	2	10	13	
	4	5	3	2	9	13	
	5	9	3	2	8	12	
	6	19	3	2	7	12	
	7	27	3	2	6	12	
	8	28	3	2	4	11	
	9	29	3	2	4	10	
36	1	1	5	1	12	22	
	2	3	4	1	10	22	
	3	4	4	1	10	20	
	4	8	4	1	9	20	
	5	10	4	1	8	19	
	6	20	4	1	7	17	
	7	22	4	1	5	17	
	8	23	4	1	4	15	
	9	28	4	1	3	14	
37	1	3	5	1	29	20	
	2	7	5	1	27	18	
	3	10	5	1	26	18	
	4	13	5	1	25	15	
	5	14	5	1	23	13	
	6	17	5	1	22	13	
	7	18	5	1	20	10	
	8	23	5	1	19	10	
	9	25	5	1	18	9	
38	1	1	2	4	30	24	
	2	4	2	4	26	22	
	3	8	2	4	24	22	
	4	12	2	4	22	20	
	5	17	2	4	19	19	
	6	18	2	4	16	18	
	7	21	2	4	13	17	
	8	22	2	4	10	16	
	9	30	2	4	7	16	
39	1	2	5	4	19	22	
	2	3	4	4	19	20	
	3	9	4	4	16	18	
	4	13	4	3	16	16	
	5	23	3	3	14	15	
	6	25	3	2	12	14	
	7	27	3	2	10	11	
	8	28	2	1	9	8	
	9	29	2	1	7	7	
40	1	2	1	4	21	28	
	2	8	1	3	21	28	
	3	15	1	3	17	27	
	4	19	1	3	17	26	
	5	20	1	3	13	25	
	6	24	1	3	13	24	
	7	25	1	3	11	24	
	8	27	1	3	7	24	
	9	28	1	3	7	23	
41	1	1	5	4	26	9	
	2	4	4	4	24	9	
	3	5	4	4	24	8	
	4	6	4	4	24	7	
	5	7	3	3	22	9	
	6	8	3	3	22	8	
	7	21	2	3	21	9	
	8	27	2	3	21	8	
	9	30	2	3	20	9	
42	1	3	4	5	26	22	
	2	6	3	4	23	21	
	3	16	3	4	22	20	
	4	17	3	3	22	18	
	5	25	2	3	18	18	
	6	27	2	3	17	17	
	7	28	2	3	16	15	
	8	29	2	2	14	14	
	9	30	2	2	13	14	
43	1	3	4	2	22	27	
	2	5	4	2	22	22	
	3	11	4	2	21	21	
	4	19	4	2	20	18	
	5	21	4	2	20	15	
	6	22	4	1	19	10	
	7	26	4	1	19	7	
	8	27	4	1	18	5	
	9	28	4	1	18	4	
44	1	4	1	1	30	25	
	2	13	1	1	27	25	
	3	14	1	1	26	25	
	4	15	1	1	23	25	
	5	19	1	1	21	24	
	6	22	1	1	18	24	
	7	24	1	1	16	23	
	8	26	1	1	14	23	
	9	28	1	1	14	22	
45	1	3	2	5	29	29	
	2	6	2	4	26	26	
	3	7	2	4	23	22	
	4	8	2	4	20	20	
	5	13	1	4	20	20	
	6	17	1	4	16	16	
	7	20	1	4	14	12	
	8	23	1	4	14	11	
	9	25	1	4	12	8	
46	1	2	4	3	20	26	
	2	3	4	3	18	24	
	3	4	4	3	18	21	
	4	6	3	3	16	18	
	5	7	3	2	16	18	
	6	10	3	2	15	17	
	7	11	3	1	15	13	
	8	16	2	1	13	13	
	9	27	2	1	13	11	
47	1	1	3	4	21	10	
	2	5	3	4	21	9	
	3	7	3	4	20	8	
	4	9	3	4	19	7	
	5	10	3	4	18	7	
	6	11	3	4	17	5	
	7	13	3	4	16	5	
	8	15	3	4	15	3	
	9	16	3	4	13	3	
48	1	5	4	3	15	23	
	2	6	3	2	15	22	
	3	9	3	2	15	20	
	4	16	3	2	15	19	
	5	18	3	2	14	18	
	6	22	3	2	14	17	
	7	26	3	2	14	15	
	8	29	3	2	14	14	
	9	30	3	2	14	13	
49	1	2	3	4	28	26	
	2	4	3	4	27	25	
	3	11	3	4	26	23	
	4	12	2	3	25	21	
	5	20	2	3	24	17	
	6	21	2	3	23	14	
	7	23	1	3	22	12	
	8	28	1	2	22	10	
	9	29	1	2	20	5	
50	1	2	4	3	30	9	
	2	8	4	3	28	8	
	3	9	4	3	27	6	
	4	10	4	3	26	5	
	5	11	3	2	25	5	
	6	13	3	2	24	5	
	7	18	3	2	24	3	
	8	21	3	2	23	2	
	9	26	3	2	22	2	
51	1	2	3	4	27	12	
	2	5	3	4	25	10	
	3	9	3	4	20	10	
	4	10	3	3	20	9	
	5	11	2	3	17	7	
	6	20	2	3	15	7	
	7	24	2	3	12	5	
	8	25	2	2	7	4	
	9	30	2	2	5	3	
52	1	3	4	5	14	29	
	2	4	4	5	14	28	
	3	6	4	5	12	28	
	4	11	4	5	11	27	
	5	14	4	5	10	27	
	6	15	4	5	9	26	
	7	16	4	5	9	25	
	8	20	4	5	8	25	
	9	27	4	5	7	24	
53	1	2	2	2	28	24	
	2	3	2	2	28	22	
	3	4	2	2	28	21	
	4	12	2	2	28	20	
	5	13	2	2	27	19	
	6	14	1	1	27	17	
	7	25	1	1	27	15	
	8	26	1	1	26	15	
	9	28	1	1	26	12	
54	1	3	3	3	17	27	
	2	5	2	2	15	25	
	3	6	2	2	12	25	
	4	9	2	2	12	24	
	5	11	2	2	10	22	
	6	13	1	2	9	22	
	7	22	1	2	7	21	
	8	27	1	2	4	19	
	9	29	1	2	4	18	
55	1	5	3	4	22	30	
	2	7	3	4	22	29	
	3	11	3	4	21	29	
	4	14	2	4	21	28	
	5	15	2	4	19	28	
	6	16	2	4	19	27	
	7	20	2	4	18	26	
	8	23	1	4	17	26	
	9	29	1	4	17	25	
56	1	6	2	2	14	7	
	2	7	2	2	13	6	
	3	10	2	2	12	6	
	4	11	2	2	12	5	
	5	13	2	2	12	4	
	6	13	2	1	11	7	
	7	14	2	1	11	6	
	8	24	2	1	10	6	
	9	26	2	1	10	5	
57	1	3	2	4	10	22	
	2	4	2	4	10	21	
	3	16	2	4	9	21	
	4	17	2	4	8	19	
	5	18	2	4	6	18	
	6	20	1	4	5	16	
	7	22	1	4	4	16	
	8	25	1	4	4	14	
	9	27	1	4	3	13	
58	1	4	4	5	17	7	
	2	7	4	5	14	7	
	3	8	4	5	14	6	
	4	9	4	5	13	6	
	5	11	4	5	12	6	
	6	16	4	5	10	6	
	7	20	4	5	10	5	
	8	26	4	5	9	6	
	9	27	4	5	7	6	
59	1	2	3	2	22	25	
	2	11	3	2	22	24	
	3	12	3	2	22	23	
	4	16	3	2	22	22	
	5	17	2	2	22	22	
	6	18	2	2	21	21	
	7	25	2	2	21	20	
	8	26	2	2	21	19	
	9	29	2	2	21	18	
60	1	11	2	2	17	25	
	2	13	1	2	16	22	
	3	15	1	2	16	18	
	4	16	1	2	16	17	
	5	17	1	2	15	13	
	6	19	1	2	15	11	
	7	20	1	2	15	10	
	8	21	1	2	15	8	
	9	28	1	2	15	5	
61	1	3	4	4	11	13	
	2	6	4	4	11	11	
	3	14	4	4	10	11	
	4	17	3	4	8	11	
	5	20	3	4	8	10	
	6	21	3	3	6	9	
	7	24	2	3	6	9	
	8	28	2	3	5	8	
	9	29	2	3	4	8	
62	1	2	2	3	21	18	
	2	3	1	3	21	18	
	3	4	1	3	19	18	
	4	5	1	3	18	18	
	5	6	1	3	17	18	
	6	7	1	3	16	17	
	7	10	1	3	16	16	
	8	19	1	3	15	17	
	9	21	1	3	14	17	
63	1	1	5	4	20	24	
	2	13	5	3	20	23	
	3	16	5	3	20	22	
	4	17	5	3	20	21	
	5	20	5	2	19	20	
	6	21	5	2	19	19	
	7	26	5	1	19	18	
	8	27	5	1	19	17	
	9	29	5	1	19	16	
64	1	8	4	1	7	8	
	2	9	4	1	6	8	
	3	10	4	1	5	8	
	4	11	4	1	5	7	
	5	12	4	1	4	8	
	6	15	4	1	3	8	
	7	19	4	1	3	7	
	8	22	4	1	1	8	
	9	28	4	1	1	7	
65	1	4	4	5	27	14	
	2	5	4	4	26	12	
	3	8	4	3	24	10	
	4	13	4	3	24	9	
	5	14	4	2	23	7	
	6	15	3	2	22	6	
	7	16	3	1	21	5	
	8	17	3	1	20	3	
	9	18	3	1	18	2	
66	1	4	2	3	17	10	
	2	6	1	2	14	10	
	3	11	1	2	13	10	
	4	13	1	2	13	9	
	5	14	1	2	12	9	
	6	18	1	2	10	9	
	7	19	1	2	9	9	
	8	26	1	2	8	8	
	9	29	1	2	7	8	
67	1	1	3	5	12	29	
	2	5	3	4	10	29	
	3	11	3	3	10	29	
	4	12	3	3	8	29	
	5	13	2	2	7	28	
	6	17	2	2	5	28	
	7	25	1	1	4	28	
	8	27	1	1	4	27	
	9	28	1	1	3	27	
68	1	4	5	4	23	10	
	2	12	4	4	19	8	
	3	17	4	4	18	8	
	4	19	3	4	13	8	
	5	24	2	4	11	7	
	6	25	2	3	8	6	
	7	26	2	3	6	6	
	8	27	1	3	3	5	
	9	28	1	3	3	4	
69	1	9	2	5	26	25	
	2	10	2	4	25	23	
	3	17	2	4	24	23	
	4	18	2	4	21	23	
	5	19	2	3	20	22	
	6	22	2	3	19	22	
	7	23	2	3	18	21	
	8	25	2	3	16	20	
	9	26	2	3	16	19	
70	1	3	5	4	22	10	
	2	10	4	3	22	9	
	3	14	4	3	20	8	
	4	18	4	3	18	7	
	5	19	4	2	14	5	
	6	20	4	2	12	5	
	7	22	4	1	10	3	
	8	29	4	1	10	2	
	9	30	4	1	7	2	
71	1	2	5	5	29	25	
	2	11	5	5	29	24	
	3	14	5	5	29	23	
	4	15	5	5	29	22	
	5	19	5	5	28	24	
	6	20	5	5	28	23	
	7	20	5	5	27	24	
	8	23	5	5	27	23	
	9	30	5	5	27	22	
72	1	3	3	2	20	24	
	2	4	3	2	19	23	
	3	5	3	2	19	20	
	4	6	3	2	18	16	
	5	7	3	2	18	14	
	6	8	3	2	18	13	
	7	20	3	2	17	9	
	8	21	3	2	17	7	
	9	22	3	2	16	3	
73	1	14	4	5	19	17	
	2	15	4	4	17	17	
	3	16	4	4	17	14	
	4	18	4	3	17	12	
	5	19	4	3	15	11	
	6	20	4	2	15	8	
	7	21	4	2	14	8	
	8	22	4	1	13	4	
	9	23	4	1	13	3	
74	1	3	4	1	15	11	
	2	10	4	1	14	10	
	3	12	4	1	12	9	
	4	16	3	1	10	9	
	5	17	3	1	9	9	
	6	18	3	1	6	8	
	7	19	2	1	6	7	
	8	29	2	1	3	7	
	9	30	2	1	1	7	
75	1	7	4	4	15	26	
	2	11	4	3	15	22	
	3	12	3	3	14	20	
	4	13	3	3	14	18	
	5	14	3	3	13	18	
	6	15	2	3	13	15	
	7	23	1	3	12	11	
	8	24	1	3	12	10	
	9	27	1	3	12	7	
76	1	1	5	2	30	17	
	2	8	4	2	29	14	
	3	10	3	2	29	14	
	4	12	3	2	28	12	
	5	18	3	1	27	11	
	6	23	2	1	27	9	
	7	24	2	1	26	7	
	8	25	1	1	26	6	
	9	30	1	1	26	5	
77	1	2	4	4	26	30	
	2	3	3	4	26	29	
	3	5	3	4	21	27	
	4	7	3	3	17	26	
	5	21	3	3	14	26	
	6	22	3	3	11	26	
	7	24	3	2	9	24	
	8	28	3	2	8	24	
	9	29	3	2	4	23	
78	1	2	5	3	17	20	
	2	9	5	2	16	18	
	3	10	5	2	16	15	
	4	11	5	2	14	14	
	5	14	5	2	13	12	
	6	18	5	1	12	9	
	7	20	5	1	12	8	
	8	24	5	1	10	5	
	9	30	5	1	10	2	
79	1	2	5	3	6	21	
	2	3	4	2	6	19	
	3	5	4	2	6	17	
	4	9	3	2	5	17	
	5	12	3	2	5	15	
	6	18	3	2	5	13	
	7	19	2	2	5	12	
	8	21	2	2	4	12	
	9	30	2	2	4	11	
80	1	2	3	5	24	25	
	2	8	3	4	24	21	
	3	10	3	4	23	21	
	4	13	3	4	21	16	
	5	15	2	4	20	15	
	6	21	2	3	20	12	
	7	23	2	3	19	9	
	8	26	1	3	17	5	
	9	28	1	3	17	4	
81	1	3	5	4	5	17	
	2	6	4	4	4	16	
	3	13	4	4	4	15	
	4	15	3	3	4	15	
	5	16	3	2	4	14	
	6	20	2	2	4	12	
	7	21	1	2	4	11	
	8	23	1	1	4	11	
	9	28	1	1	4	9	
82	1	2	3	5	27	28	
	2	6	3	5	24	24	
	3	20	3	5	22	22	
	4	21	3	5	21	19	
	5	22	3	5	20	16	
	6	26	3	5	17	13	
	7	27	3	5	15	10	
	8	28	3	5	13	6	
	9	29	3	5	12	4	
83	1	12	5	5	11	25	
	2	17	4	4	10	23	
	3	20	4	4	10	21	
	4	21	3	3	8	21	
	5	24	3	3	8	19	
	6	25	2	3	7	18	
	7	26	1	2	6	18	
	8	27	1	2	5	17	
	9	29	1	2	4	16	
84	1	1	5	4	23	18	
	2	4	4	4	22	17	
	3	8	4	4	21	15	
	4	9	3	3	20	15	
	5	10	3	2	19	14	
	6	11	3	2	17	14	
	7	19	2	1	17	13	
	8	20	2	1	15	12	
	9	30	2	1	14	11	
85	1	11	3	4	27	23	
	2	12	2	4	24	20	
	3	15	2	4	23	16	
	4	17	2	4	22	15	
	5	21	1	4	19	11	
	6	23	1	4	16	10	
	7	24	1	4	15	9	
	8	28	1	4	12	6	
	9	29	1	4	10	3	
86	1	9	4	5	24	25	
	2	13	4	4	24	25	
	3	14	4	4	24	24	
	4	22	4	4	23	23	
	5	24	3	4	23	22	
	6	25	3	3	23	22	
	7	26	3	3	22	22	
	8	29	3	3	22	20	
	9	30	3	3	22	19	
87	1	1	2	4	12	28	
	2	2	2	3	12	28	
	3	3	2	3	10	28	
	4	5	2	2	9	28	
	5	7	2	2	9	27	
	6	14	1	2	8	28	
	7	18	1	2	6	28	
	8	21	1	1	5	28	
	9	24	1	1	4	28	
88	1	1	1	5	28	20	
	2	7	1	4	27	19	
	3	10	1	4	27	18	
	4	12	1	4	27	17	
	5	19	1	4	27	14	
	6	20	1	4	27	13	
	7	21	1	4	27	11	
	8	24	1	4	27	10	
	9	27	1	4	27	9	
89	1	1	4	5	28	21	
	2	2	4	4	28	21	
	3	3	4	4	25	17	
	4	6	4	4	23	15	
	5	7	4	4	23	14	
	6	8	4	4	20	12	
	7	20	4	4	18	11	
	8	26	4	4	17	9	
	9	29	4	4	16	6	
90	1	2	4	5	12	25	
	2	7	4	4	12	24	
	3	11	4	4	12	23	
	4	14	4	3	12	21	
	5	19	4	3	11	19	
	6	20	4	2	11	18	
	7	28	4	1	11	16	
	8	29	4	1	11	13	
	9	30	4	1	11	11	
91	1	5	2	3	13	16	
	2	8	2	3	11	16	
	3	18	2	3	10	16	
	4	19	2	3	8	16	
	5	20	1	3	7	16	
	6	21	1	2	6	16	
	7	23	1	2	3	16	
	8	25	1	2	3	15	
	9	27	1	2	1	16	
92	1	2	2	4	24	29	
	2	10	2	3	21	26	
	3	21	2	3	20	24	
	4	22	2	3	16	18	
	5	24	2	3	15	16	
	6	25	2	3	14	13	
	7	26	2	3	12	13	
	8	28	2	3	10	9	
	9	29	2	3	6	7	
93	1	1	3	5	26	20	
	2	10	3	5	22	19	
	3	11	3	5	20	17	
	4	14	3	5	17	15	
	5	22	2	5	15	13	
	6	23	2	5	14	9	
	7	26	1	5	12	6	
	8	29	1	5	9	5	
	9	30	1	5	6	1	
94	1	4	3	5	17	6	
	2	7	3	4	16	6	
	3	11	3	4	15	6	
	4	12	2	4	15	6	
	5	17	2	3	14	5	
	6	18	2	3	13	5	
	7	21	2	2	12	5	
	8	23	1	2	11	5	
	9	24	1	2	9	5	
95	1	2	3	4	28	20	
	2	3	3	4	28	18	
	3	6	3	4	28	16	
	4	7	3	4	27	15	
	5	8	3	3	27	13	
	6	11	2	3	27	13	
	7	25	2	2	27	11	
	8	29	2	2	26	8	
	9	30	2	2	26	7	
96	1	1	4	3	28	4	
	2	4	4	3	26	4	
	3	7	4	3	26	3	
	4	11	4	2	24	4	
	5	19	3	2	24	4	
	6	20	3	2	22	4	
	7	26	3	1	20	4	
	8	28	3	1	19	4	
	9	29	3	1	18	4	
97	1	3	4	1	28	11	
	2	4	3	1	27	11	
	3	5	3	1	26	10	
	4	6	3	1	24	8	
	5	7	3	1	23	8	
	6	8	3	1	21	7	
	7	13	3	1	21	5	
	8	16	3	1	19	4	
	9	28	3	1	18	4	
98	1	3	4	3	26	27	
	2	8	4	2	23	27	
	3	9	4	2	22	27	
	4	12	4	2	18	27	
	5	15	4	2	17	26	
	6	16	4	2	16	26	
	7	17	4	2	11	25	
	8	23	4	2	10	25	
	9	27	4	2	6	25	
99	1	6	4	2	28	26	
	2	7	4	2	26	24	
	3	9	3	2	25	23	
	4	14	3	2	24	21	
	5	20	2	2	24	18	
	6	26	2	1	23	18	
	7	27	2	1	21	15	
	8	28	1	1	21	14	
	9	30	1	1	20	14	
100	1	1	4	4	18	3	
	2	5	4	4	16	2	
	3	6	4	4	15	2	
	4	8	4	4	14	2	
	5	11	4	4	14	1	
	6	11	4	3	13	2	
	7	12	4	3	13	1	
	8	15	4	3	11	2	
	9	24	4	3	11	1	
101	1	4	5	5	19	20	
	2	8	4	4	16	18	
	3	10	4	3	16	17	
	4	13	4	3	14	15	
	5	14	4	2	12	15	
	6	17	4	2	12	13	
	7	22	4	1	10	12	
	8	24	4	1	10	10	
	9	26	4	1	9	10	
102	1	0	0	0	0	0	
************************************************************************

 RESOURCE AVAILABILITIES 
	R 1	R 2	N 1	N 2
	71	75	1829	1765

************************************************************************
